SAT
95 -35 64 55 -69 169 91 133 117 -37 -15 42 21 -106 -31 -48 3 -152 -131 -120 -43 -83 150 7 108 17 -105 -144 77 20 -60 154 85 -114 145 -116 -110 126 -26 -58 136 156 82 -123 -19 33 -61 40 -34 -94 56 97 52 -27 155 -78 -135 50 30 80 129 -148 -6 160 -122 166 103 -111 -14 12 63 -165 32 29 -132 13 -76 167 68 36 71 104 -66 39 100 99 -175 -4 45 -137 -57 67 174 173 -112 -124 -9 -101 -149 -44 -163 -113 -119 -84 139 147 162 98 -22 -70 -62 -146 24 86 -102 161 -53 96 16 38 -170 28 8 65 -109 -151 130 73 -25 157 -127 -158 138 -49 -172 -134 142 54 153 59 -90 -171 -88 -92 -140 46 115 128 -5 -118 -11 -18 1 125 47 -74 41 72 168 141 75 -107 -159 79 -143 -2 -81 -23 -164 -87 -10 121 93 -51 89 0
